c SAT Generator for power-law distributed variable frequencies
c -g u -v 20 -c 91 -k 3 -p 2.750000 -b 3.200000 -f /home/schmidt/Devel/ni-kop-sat/data/ensemble/ruf20-91/ruf20-91-863 -u 1 -U 1 -s 3688468742
p cnf 20 91
3 -11 12 0
3 10 16 0
-1 14 -19 0
-3 6 17 0
-5 11 13 0
2 8 -18 0
2 -10 -11 0
-10 -17 -18 0
-3 9 -11 0
5 10 -14 0
2 -5 -6 0
1 3 9 0
1 -3 -9 0
-5 10 -11 0
4 -17 -20 0
2 -8 -19 0
-14 15 16 0
-10 -11 -12 0
-10 -15 -20 0
-2 -13 19 0
1 -6 8 0
-6 -7 -19 0
3 -15 20 0
8 13 -18 0
-8 9 10 0
10 -11 13 0
-4 16 18 0
8 17 -18 0
-2 4 -7 0
1 -13 14 0
-1 2 -9 0
-1 -6 -19 0
-1 -12 -15 0
-6 12 14 0
-1 -9 16 0
5 7 -16 0
-5 10 15 0
11 -12 19 0
2 -9 -20 0
-1 8 -15 0
8 10 18 0
4 -7 -13 0
3 -8 19 0
-6 -8 18 0
4 -8 -12 0
3 -18 -19 0
-7 9 -15 0
9 -16 18 0
-3 -14 -18 0
9 -16 -18 0
-2 -7 -15 0
-3 -4 -19 0
2 -3 -4 0
-10 -12 -19 0
1 5 17 0
-5 13 -14 0
-5 -9 11 0
1 -14 -17 0
9 13 -20 0
1 7 -15 0
-3 13 -14 0
-1 3 -9 0
1 -10 14 0
2 3 19 0
-1 12 -13 0
1 -9 20 0
6 -13 16 0
-4 -5 8 0
-1 -6 -13 0
-5 6 -10 0
9 12 -19 0
-1 -12 -19 0
3 19 -20 0
1 13 -15 0
-4 5 -8 0
2 8 13 0
2 5 -11 0
-6 11 19 0
-3 -6 -17 0
-7 -14 -17 0
5 12 -20 0
-13 -16 -17 0
-12 16 -18 0
-6 -7 -9 0
-8 -10 -14 0
2 6 15 0
3 6 15 0
-5 -9 10 0
-1 12 16 0
7 10 18 0
12 -13 -20 0
